NAME (null)_copy
ROWS
 N  OBJ
 E  c0      
 E  c1      
 E  c2      
 E  c3      
 E  c4      
 E  c5      
 E  c6      
 E  c7      
 E  c8      
 E  c9      
 E  c10     
 E  c11     
 E  c12     
 E  c13     
 E  c14     
 E  c15     
 E  c16     
 E  c17     
 E  c18     
 E  c19     
 E  c20     
 E  c21     
 E  c22     
 E  c23     
 E  c24     
 E  c25     
 E  c26     
 E  c27     
 E  c28     
 L  c29     
 L  c30     
 L  c31     
 L  c32     
 L  c33     
 L  c34     
 L  c35     
 L  c36     
 L  c37     
 L  c38     
 L  c39     
 L  c40     
 L  c41     
 L  c42     
 L  c43     
 L  c44     
 L  c45     
 L  c46     
 L  c47     
 L  c48     
 E  c49     
 E  c50     
 E  c51     
 E  c52     
 E  c53     
 E  c54     
 E  c55     
 E  c56     
 E  c57     
 E  c58     
 E  c59     
 E  c60     
 E  c61     
 E  c62     
 E  c63     
 E  c64     
 L  c65     
 L  c66     
 L  c67     
 L  c68     
 L  c69     
 L  c70     
 L  c71     
 L  c72     
 L  c73     
 L  c74     
 L  c75     
 L  c76     
 L  c77     
 L  c78     
 L  c79     
 L  c80     
 L  c81     
 L  c82     
 L  c83     
 L  c84     
 L  c85     
 L  c86     
 L  c87     
 L  c88     
 L  c89     
 L  c90     
 L  c91     
 L  c92     
 L  c93     
 L  c94     
 L  c95     
 L  c96     
 L  c97     
 L  c98     
 L  c99     
 L  c100    
 L  c101    
 L  c102    
 L  c103    
 L  c104    
 L  c105    
 L  c106    
 L  c107    
 L  c108    
 L  c109    
 L  c110    
 L  c111    
 L  c112    
 L  c113    
 L  c114    
 L  c115    
 L  c116    
 L  c117    
 L  c118    
 L  c119    
 L  c120    
 L  c121    
 L  c122    
 L  c123    
 L  c124    
 L  c125    
 L  c126    
 L  c127    
 L  c128    
 L  c129    
 L  c130    
 L  c131    
 L  c132    
 L  c133    
 L  c134    
 L  c135    
 L  c136    
 L  c137    
 L  c138    
 L  c139    
 L  c140    
 L  c141    
 L  c142    
 L  c143    
 L  c144    
 L  c145    
 L  c146    
 L  c147    
 L  c148    
 L  c149    
 L  c150    
 L  c151    
 L  c152    
 L  c153    
 L  c154    
 L  c155    
 L  c156    
 L  c157    
 L  c158    
 L  c159    
 L  c160    
 L  c161    
 L  c162    
 L  c163    
 L  c164    
 L  c165    
 L  c166    
 L  c167    
 L  c168    
 L  c169    
 L  c170    
 L  c171    
 L  c172    
 L  c173    
 L  c174    
 L  c175    
 L  c176    
 L  c177    
 L  c178    
 L  c179    
 L  c180    
 L  c181    
 L  c182    
 L  c183    
 L  c184    
 L  c185    
 L  c186    
 L  c187    
 L  c188    
 L  c189    
 L  c190    
 L  c191    
 L  c192    
 L  c193    
 L  c194    
 L  c195    
 L  c196    
 L  c197    
 L  c198    
 L  c199    
 L  c200    
 L  c201    
 L  c202    
 L  c203    
 L  c204    
 L  c205    
 L  c206    
 L  c207    
 L  c208    
 L  c209    
 L  c210    
 L  c211    
 L  c212    
 L  c213    
 L  c214    
 L  c215    
 L  c216    
 L  c217    
 L  c218    
 L  c219    
 L  c220    
 L  c221    
 L  c222    
 L  c223    
 L  c224    
 L  c225    
 L  c226    
 L  c227    
 L  c228    
 L  c229    
 L  c230    
 L  c231    
 L  c232    
 L  c233    
 L  c234    
 L  c235    
 L  c236    
 L  c237    
 L  c238    
 L  c239    
 L  c240    
 L  c241    
 L  c242    
 L  c243    
 L  c244    
 L  c245    
 L  c246    
 L  c247    
 L  c248    
 L  c249    
 L  c250    
 L  c251    
 L  c252    
 L  c253    
 L  c254    
 L  c255    
 L  c256    
 L  c257    
 L  c258    
 L  c259    
 L  c260    
 L  c261    
 L  c262    
 L  c263    
 L  c264    
 L  c265    
 L  c266    
 L  c267    
 L  c268    
COLUMNS
    MARKER    'MARKER'                 'INTORG'
    x[0,0,0]  c0        1
    x[0,0,0]  c4        -1
    x[0,0,0]  c29       1
    x[0,0,0]  c65       4
    x[0,0,0]  c85       4
    x[0,0,0]  c105      4
    x[0,0,0]  c186      -1
    x[0,0,0]  c189      -1
    x[0,0,0]  c205      1
    x[0,0,0]  c229      1
    x[0,0,0]  c251      -1
    x[0,0,0]  c253      -1
    x[0,0,0]  c256      -1
    x[0,0,0]  c258      -1
    x[0,0,0]  c261      -1
    x[0,0,0]  c263      -1
    x[0,0,0]  c266      -1
    x[0,0,0]  c268      -1
    x[0,0,1]  c0        1
    x[0,0,1]  c5        -1
    x[0,0,1]  c30       1
    x[0,0,1]  c66       4
    x[0,0,1]  c89       4
    x[0,0,1]  c110      4
    x[0,0,1]  c191      -1
    x[0,0,1]  c194      -1
    x[0,0,1]  c210      1
    x[0,0,1]  c234      1
    x[0,0,1]  c256      -1
    x[0,0,1]  c258      -1
    x[0,0,1]  c261      -1
    x[0,0,1]  c263      -1
    x[0,0,1]  c266      -1
    x[0,0,1]  c268      -1
    x[0,0,2]  c0        1
    x[0,0,2]  c6        -1
    x[0,0,2]  c31       1
    x[0,0,2]  c67       4
    x[0,0,2]  c93       4
    x[0,0,2]  c115      4
    x[0,0,2]  c196      -1
    x[0,0,2]  c199      -1
    x[0,0,2]  c215      1
    x[0,0,2]  c239      1
    x[0,0,2]  c261      -1
    x[0,0,2]  c263      -1
    x[0,0,2]  c266      -1
    x[0,0,2]  c268      -1
    x[0,0,3]  c0        1
    x[0,0,3]  c32       1
    x[0,0,3]  c68       4
    x[0,0,3]  c97       4
    x[0,0,3]  c120      4
    x[0,0,3]  c201      -1
    x[0,0,3]  c204      -1
    x[0,0,3]  c220      1
    x[0,0,3]  c244      1
    x[0,0,3]  c266      -1
    x[0,0,3]  c268      -1
    x[0,1,0]  c0        1
    x[0,1,0]  c4        -1
    x[0,1,0]  c33       1
    x[0,1,0]  c69       4
    x[0,1,0]  c86       4
    x[0,1,0]  c106      4
    x[0,1,0]  c145      -1
    x[0,1,0]  c147      -1
    x[0,1,0]  c206      1
    x[0,1,0]  c230      1
    x[0,1,0]  c251      -1
    x[0,1,0]  c253      -1
    x[0,1,0]  c256      -1
    x[0,1,0]  c258      -1
    x[0,1,0]  c261      -1
    x[0,1,0]  c263      -1
    x[0,1,0]  c266      -1
    x[0,1,0]  c268      -1
    x[0,1,1]  c0        1
    x[0,1,1]  c5        -1
    x[0,1,1]  c34       1
    x[0,1,1]  c70       4
    x[0,1,1]  c90       4
    x[0,1,1]  c111      4
    x[0,1,1]  c150      -1
    x[0,1,1]  c152      -1
    x[0,1,1]  c211      1
    x[0,1,1]  c235      1
    x[0,1,1]  c256      -1
    x[0,1,1]  c258      -1
    x[0,1,1]  c261      -1
    x[0,1,1]  c263      -1
    x[0,1,1]  c266      -1
    x[0,1,1]  c268      -1
    x[0,1,2]  c0        1
    x[0,1,2]  c6        -1
    x[0,1,2]  c35       1
    x[0,1,2]  c71       4
    x[0,1,2]  c94       4
    x[0,1,2]  c116      4
    x[0,1,2]  c155      -1
    x[0,1,2]  c157      -1
    x[0,1,2]  c216      1
    x[0,1,2]  c240      1
    x[0,1,2]  c261      -1
    x[0,1,2]  c263      -1
    x[0,1,2]  c266      -1
    x[0,1,2]  c268      -1
    x[0,1,3]  c0        1
    x[0,1,3]  c36       1
    x[0,1,3]  c72       4
    x[0,1,3]  c98       4
    x[0,1,3]  c121      4
    x[0,1,3]  c160      -1
    x[0,1,3]  c162      -1
    x[0,1,3]  c221      1
    x[0,1,3]  c245      1
    x[0,1,3]  c266      -1
    x[0,1,3]  c268      -1
    x[1,0,0]  c1        1
    x[1,0,0]  c7        -1
    x[1,0,0]  c37       1
    x[1,0,0]  c73       4
    x[1,0,0]  c87       4
    x[1,0,0]  c101      4
    x[1,0,0]  c107      4
    x[1,0,0]  c207      1
    x[1,0,0]  c231      1
    x[1,0,1]  c1        1
    x[1,0,1]  c8        -1
    x[1,0,1]  c38       1
    x[1,0,1]  c74       4
    x[1,0,1]  c91       4
    x[1,0,1]  c102      4
    x[1,0,1]  c112      4
    x[1,0,1]  c212      1
    x[1,0,1]  c236      1
    x[1,0,2]  c1        1
    x[1,0,2]  c9        -1
    x[1,0,2]  c39       1
    x[1,0,2]  c75       4
    x[1,0,2]  c95       4
    x[1,0,2]  c103      4
    x[1,0,2]  c117      4
    x[1,0,2]  c217      1
    x[1,0,2]  c241      1
    x[1,0,3]  c1        1
    x[1,0,3]  c40       1
    x[1,0,3]  c76       4
    x[1,0,3]  c99       4
    x[1,0,3]  c104      4
    x[1,0,3]  c122      4
    x[1,0,3]  c222      1
    x[1,0,3]  c246      1
    x[2,0,0]  c2        1
    x[2,0,0]  c10       -1
    x[2,0,0]  c41       1
    x[2,0,0]  c77       4
    x[2,0,0]  c108      4
    x[2,0,0]  c145      -1
    x[2,0,0]  c147      -1
    x[2,0,0]  c166      -1
    x[2,0,0]  c169      -1
    x[2,0,0]  c186      -1
    x[2,0,0]  c189      -1
    x[2,0,0]  c208      1
    x[2,0,0]  c232      1
    x[2,0,0]  c249      -1
    x[2,0,0]  c250      -1
    x[2,0,0]  c251      -1
    x[2,0,0]  c253      -1
    x[2,0,0]  c254      -1
    x[2,0,0]  c255      -1
    x[2,0,0]  c256      -1
    x[2,0,0]  c258      -1
    x[2,0,0]  c259      -1
    x[2,0,0]  c260      -1
    x[2,0,0]  c261      -1
    x[2,0,0]  c263      -1
    x[2,0,0]  c264      -1
    x[2,0,0]  c265      -1
    x[2,0,0]  c266      -1
    x[2,0,0]  c268      -1
    x[2,0,1]  c2        1
    x[2,0,1]  c11       -1
    x[2,0,1]  c42       1
    x[2,0,1]  c78       4
    x[2,0,1]  c113      4
    x[2,0,1]  c150      -1
    x[2,0,1]  c152      -1
    x[2,0,1]  c171      -1
    x[2,0,1]  c174      -1
    x[2,0,1]  c191      -1
    x[2,0,1]  c194      -1
    x[2,0,1]  c213      1
    x[2,0,1]  c237      1
    x[2,0,1]  c254      -1
    x[2,0,1]  c255      -1
    x[2,0,1]  c256      -1
    x[2,0,1]  c258      -1
    x[2,0,1]  c259      -1
    x[2,0,1]  c260      -1
    x[2,0,1]  c261      -1
    x[2,0,1]  c263      -1
    x[2,0,1]  c264      -1
    x[2,0,1]  c265      -1
    x[2,0,1]  c266      -1
    x[2,0,1]  c268      -1
    x[2,0,2]  c2        1
    x[2,0,2]  c12       -1
    x[2,0,2]  c43       1
    x[2,0,2]  c79       4
    x[2,0,2]  c118      4
    x[2,0,2]  c155      -1
    x[2,0,2]  c157      -1
    x[2,0,2]  c176      -1
    x[2,0,2]  c179      -1
    x[2,0,2]  c196      -1
    x[2,0,2]  c199      -1
    x[2,0,2]  c218      1
    x[2,0,2]  c242      1
    x[2,0,2]  c259      -1
    x[2,0,2]  c260      -1
    x[2,0,2]  c261      -1
    x[2,0,2]  c263      -1
    x[2,0,2]  c264      -1
    x[2,0,2]  c265      -1
    x[2,0,2]  c266      -1
    x[2,0,2]  c268      -1
    x[2,0,3]  c2        1
    x[2,0,3]  c44       1
    x[2,0,3]  c80       4
    x[2,0,3]  c123      4
    x[2,0,3]  c160      -1
    x[2,0,3]  c162      -1
    x[2,0,3]  c181      -1
    x[2,0,3]  c184      -1
    x[2,0,3]  c201      -1
    x[2,0,3]  c204      -1
    x[2,0,3]  c223      1
    x[2,0,3]  c247      1
    x[2,0,3]  c264      -1
    x[2,0,3]  c265      -1
    x[2,0,3]  c266      -1
    x[2,0,3]  c268      -1
    x[3,0,0]  c3        1
    x[3,0,0]  c4        -1
    x[3,0,0]  c17       1
    x[3,0,0]  c21       1
    x[3,0,0]  c25       1
    x[3,0,0]  c45       1
    x[3,0,0]  c81       4
    x[3,0,0]  c88       4
    x[3,0,0]  c109      4
    x[3,0,0]  c145      -1
    x[3,0,0]  c147      -1
    x[3,0,0]  c209      1
    x[3,0,0]  c233      1
    x[3,0,0]  c251      -1
    x[3,0,0]  c256      -1
    x[3,0,0]  c261      -1
    x[3,0,0]  c266      -1
    x[3,0,1]  c3        1
    x[3,0,1]  c5        -1
    x[3,0,1]  c21       1
    x[3,0,1]  c25       1
    x[3,0,1]  c46       1
    x[3,0,1]  c82       4
    x[3,0,1]  c92       4
    x[3,0,1]  c114      4
    x[3,0,1]  c150      -1
    x[3,0,1]  c152      -1
    x[3,0,1]  c214      1
    x[3,0,1]  c238      1
    x[3,0,1]  c256      -1
    x[3,0,1]  c261      -1
    x[3,0,1]  c266      -1
    x[3,0,2]  c3        1
    x[3,0,2]  c6        -1
    x[3,0,2]  c25       1
    x[3,0,2]  c47       1
    x[3,0,2]  c83       4
    x[3,0,2]  c96       4
    x[3,0,2]  c119      4
    x[3,0,2]  c155      -1
    x[3,0,2]  c157      -1
    x[3,0,2]  c219      1
    x[3,0,2]  c243      1
    x[3,0,2]  c261      -1
    x[3,0,2]  c266      -1
    x[3,0,3]  c3        1
    x[3,0,3]  c48       1
    x[3,0,3]  c84       4
    x[3,0,3]  c100      4
    x[3,0,3]  c124      4
    x[3,0,3]  c160      -1
    x[3,0,3]  c162      -1
    x[3,0,3]  c224      1
    x[3,0,3]  c248      1
    x[3,0,3]  c266      -1
    y[0,0,0]  c125      -1
    y[0,0,0]  c166      -1
    y[0,0,0]  c168      -1
    y[0,0,0]  c169      -1
    y[0,0,0]  c225      1
    y[0,0,0]  c229      -1
    y[0,0,0]  c230      -1
    y[0,0,0]  c232      -1
    y[0,0,0]  c233      -1
    y[0,0,0]  c249      4
    y[0,0,1]  c130      -1
    y[0,0,1]  c171      -1
    y[0,0,1]  c173      -1
    y[0,0,1]  c174      -1
    y[0,0,1]  c226      1
    y[0,0,1]  c234      -1
    y[0,0,1]  c235      -1
    y[0,0,1]  c237      -1
    y[0,0,1]  c238      -1
    y[0,0,1]  c254      4
    y[0,0,2]  c135      -1
    y[0,0,2]  c176      -1
    y[0,0,2]  c178      -1
    y[0,0,2]  c179      -1
    y[0,0,2]  c227      1
    y[0,0,2]  c239      -1
    y[0,0,2]  c240      -1
    y[0,0,2]  c242      -1
    y[0,0,2]  c243      -1
    y[0,0,2]  c259      4
    y[0,0,3]  c140      -1
    y[0,0,3]  c181      -1
    y[0,0,3]  c183      -1
    y[0,0,3]  c184      -1
    y[0,0,3]  c228      1
    y[0,0,3]  c244      -1
    y[0,0,3]  c245      -1
    y[0,0,3]  c247      -1
    y[0,0,3]  c248      -1
    y[0,0,3]  c264      4
    y[0,1,0]  c126      -1
    y[0,1,0]  c128      -1
    y[0,1,0]  c129      -1
    y[0,1,0]  c225      1
    y[0,1,0]  c229      -1
    y[0,1,0]  c230      -1
    y[0,1,0]  c232      -1
    y[0,1,0]  c233      -1
    y[0,1,0]  c250      6
    y[0,1,1]  c131      -1
    y[0,1,1]  c133      -1
    y[0,1,1]  c134      -1
    y[0,1,1]  c226      1
    y[0,1,1]  c234      -1
    y[0,1,1]  c235      -1
    y[0,1,1]  c237      -1
    y[0,1,1]  c238      -1
    y[0,1,1]  c255      6
    y[0,1,2]  c136      -1
    y[0,1,2]  c138      -1
    y[0,1,2]  c139      -1
    y[0,1,2]  c227      1
    y[0,1,2]  c239      -1
    y[0,1,2]  c240      -1
    y[0,1,2]  c242      -1
    y[0,1,2]  c243      -1
    y[0,1,2]  c260      6
    y[0,1,3]  c141      -1
    y[0,1,3]  c143      -1
    y[0,1,3]  c144      -1
    y[0,1,3]  c228      1
    y[0,1,3]  c244      -1
    y[0,1,3]  c245      -1
    y[0,1,3]  c247      -1
    y[0,1,3]  c248      -1
    y[0,1,3]  c265      6
    y[1,0,0]  c125      -1
    y[1,0,0]  c127      -1
    y[1,0,0]  c166      -1
    y[1,0,0]  c168      -1
    y[1,0,0]  c169      -1
    y[1,0,0]  c225      1
    y[1,0,0]  c229      -1
    y[1,0,0]  c230      -1
    y[1,0,0]  c231      -1
    y[1,0,0]  c232      -1
    y[1,0,0]  c233      -1
    y[1,0,0]  c251      10
    y[1,0,1]  c130      -1
    y[1,0,1]  c132      -1
    y[1,0,1]  c171      -1
    y[1,0,1]  c173      -1
    y[1,0,1]  c174      -1
    y[1,0,1]  c226      1
    y[1,0,1]  c234      -1
    y[1,0,1]  c235      -1
    y[1,0,1]  c236      -1
    y[1,0,1]  c237      -1
    y[1,0,1]  c238      -1
    y[1,0,1]  c256      10
    y[1,0,2]  c135      -1
    y[1,0,2]  c137      -1
    y[1,0,2]  c176      -1
    y[1,0,2]  c178      -1
    y[1,0,2]  c179      -1
    y[1,0,2]  c227      1
    y[1,0,2]  c239      -1
    y[1,0,2]  c240      -1
    y[1,0,2]  c241      -1
    y[1,0,2]  c242      -1
    y[1,0,2]  c243      -1
    y[1,0,2]  c261      10
    y[1,0,3]  c140      -1
    y[1,0,3]  c142      -1
    y[1,0,3]  c181      -1
    y[1,0,3]  c183      -1
    y[1,0,3]  c184      -1
    y[1,0,3]  c228      1
    y[1,0,3]  c244      -1
    y[1,0,3]  c245      -1
    y[1,0,3]  c246      -1
    y[1,0,3]  c247      -1
    y[1,0,3]  c248      -1
    y[1,0,3]  c266      10
    y[2,0,0]  c128      -1
    y[2,0,0]  c225      1
    y[2,0,0]  c232      -1
    y[2,0,0]  c252      3
    y[2,0,1]  c133      -1
    y[2,0,1]  c226      1
    y[2,0,1]  c237      -1
    y[2,0,1]  c257      3
    y[2,0,2]  c138      -1
    y[2,0,2]  c227      1
    y[2,0,2]  c242      -1
    y[2,0,2]  c262      3
    y[2,0,3]  c143      -1
    y[2,0,3]  c228      1
    y[2,0,3]  c247      -1
    y[2,0,3]  c267      3
    y[3,0,0]  c126      -1
    y[3,0,0]  c128      -1
    y[3,0,0]  c129      -1
    y[3,0,0]  c225      1
    y[3,0,0]  c229      -1
    y[3,0,0]  c230      -1
    y[3,0,0]  c232      -1
    y[3,0,0]  c233      -1
    y[3,0,0]  c253      6
    y[3,0,1]  c131      -1
    y[3,0,1]  c133      -1
    y[3,0,1]  c134      -1
    y[3,0,1]  c226      1
    y[3,0,1]  c234      -1
    y[3,0,1]  c235      -1
    y[3,0,1]  c237      -1
    y[3,0,1]  c238      -1
    y[3,0,1]  c258      6
    y[3,0,2]  c136      -1
    y[3,0,2]  c138      -1
    y[3,0,2]  c139      -1
    y[3,0,2]  c227      1
    y[3,0,2]  c239      -1
    y[3,0,2]  c240      -1
    y[3,0,2]  c242      -1
    y[3,0,2]  c243      -1
    y[3,0,2]  c263      6
    y[3,0,3]  c141      -1
    y[3,0,3]  c143      -1
    y[3,0,3]  c144      -1
    y[3,0,3]  c228      1
    y[3,0,3]  c244      -1
    y[3,0,3]  c245      -1
    y[3,0,3]  c247      -1
    y[3,0,3]  c248      -1
    y[3,0,3]  c268      6
    z1[0,0,0]  c125      1
    z1[0,0,0]  c205      -1
    z2[0,0,0]  c145      6
    z2[0,0,0]  c205      -1
    z3[0,0,0]  c165      2
    z3[0,0,0]  c205      -1
    z3[0,0,0]  c249      1
    z3[0,0,0]  c250      1
    z3[0,0,0]  c251      1
    z3[0,0,0]  c252      1
    z3[0,0,0]  c253      1
    z4[0,0,0]  c185      2
    z4[0,0,0]  c205      -1
    z4[0,0,0]  c249      1
    z4[0,0,0]  c250      1
    z4[0,0,0]  c251      1
    z4[0,0,0]  c252      1
    z4[0,0,0]  c253      1
    z1[0,0,1]  c130      1
    z1[0,0,1]  c210      -1
    z2[0,0,1]  c150      6
    z2[0,0,1]  c210      -1
    z3[0,0,1]  c170      2
    z3[0,0,1]  c210      -1
    z3[0,0,1]  c254      1
    z3[0,0,1]  c255      1
    z3[0,0,1]  c256      1
    z3[0,0,1]  c257      1
    z3[0,0,1]  c258      1
    z4[0,0,1]  c190      2
    z4[0,0,1]  c210      -1
    z4[0,0,1]  c254      1
    z4[0,0,1]  c255      1
    z4[0,0,1]  c256      1
    z4[0,0,1]  c257      1
    z4[0,0,1]  c258      1
    z1[0,0,2]  c135      1
    z1[0,0,2]  c215      -1
    z2[0,0,2]  c155      6
    z2[0,0,2]  c215      -1
    z3[0,0,2]  c175      2
    z3[0,0,2]  c215      -1
    z3[0,0,2]  c259      1
    z3[0,0,2]  c260      1
    z3[0,0,2]  c261      1
    z3[0,0,2]  c262      1
    z3[0,0,2]  c263      1
    z4[0,0,2]  c195      2
    z4[0,0,2]  c215      -1
    z4[0,0,2]  c259      1
    z4[0,0,2]  c260      1
    z4[0,0,2]  c261      1
    z4[0,0,2]  c262      1
    z4[0,0,2]  c263      1
    z1[0,0,3]  c140      1
    z1[0,0,3]  c220      -1
    z2[0,0,3]  c160      6
    z2[0,0,3]  c220      -1
    z3[0,0,3]  c180      2
    z3[0,0,3]  c220      -1
    z3[0,0,3]  c264      1
    z3[0,0,3]  c265      1
    z3[0,0,3]  c266      1
    z3[0,0,3]  c267      1
    z3[0,0,3]  c268      1
    z4[0,0,3]  c200      2
    z4[0,0,3]  c220      -1
    z4[0,0,3]  c264      1
    z4[0,0,3]  c265      1
    z4[0,0,3]  c266      1
    z4[0,0,3]  c267      1
    z4[0,0,3]  c268      1
    z1[0,1,0]  c126      1
    z1[0,1,0]  c206      -1
    z2[0,1,0]  c146      6
    z2[0,1,0]  c206      -1
    z3[0,1,0]  c145      1
    z3[0,1,0]  c147      1
    z3[0,1,0]  c166      2
    z3[0,1,0]  c206      -1
    z3[0,1,0]  c249      1
    z3[0,1,0]  c250      1
    z3[0,1,0]  c251      1
    z3[0,1,0]  c252      1
    z3[0,1,0]  c253      1
    z4[0,1,0]  c145      1
    z4[0,1,0]  c147      1
    z4[0,1,0]  c186      2
    z4[0,1,0]  c206      -1
    z4[0,1,0]  c249      1
    z4[0,1,0]  c250      1
    z4[0,1,0]  c251      1
    z4[0,1,0]  c252      1
    z4[0,1,0]  c253      1
    z1[0,1,1]  c131      1
    z1[0,1,1]  c211      -1
    z2[0,1,1]  c151      6
    z2[0,1,1]  c211      -1
    z3[0,1,1]  c150      1
    z3[0,1,1]  c152      1
    z3[0,1,1]  c171      2
    z3[0,1,1]  c211      -1
    z3[0,1,1]  c254      1
    z3[0,1,1]  c255      1
    z3[0,1,1]  c256      1
    z3[0,1,1]  c257      1
    z3[0,1,1]  c258      1
    z4[0,1,1]  c150      1
    z4[0,1,1]  c152      1
    z4[0,1,1]  c191      2
    z4[0,1,1]  c211      -1
    z4[0,1,1]  c254      1
    z4[0,1,1]  c255      1
    z4[0,1,1]  c256      1
    z4[0,1,1]  c257      1
    z4[0,1,1]  c258      1
    z1[0,1,2]  c136      1
    z1[0,1,2]  c216      -1
    z2[0,1,2]  c156      6
    z2[0,1,2]  c216      -1
    z3[0,1,2]  c155      1
    z3[0,1,2]  c157      1
    z3[0,1,2]  c176      2
    z3[0,1,2]  c216      -1
    z3[0,1,2]  c259      1
    z3[0,1,2]  c260      1
    z3[0,1,2]  c261      1
    z3[0,1,2]  c262      1
    z3[0,1,2]  c263      1
    z4[0,1,2]  c155      1
    z4[0,1,2]  c157      1
    z4[0,1,2]  c196      2
    z4[0,1,2]  c216      -1
    z4[0,1,2]  c259      1
    z4[0,1,2]  c260      1
    z4[0,1,2]  c261      1
    z4[0,1,2]  c262      1
    z4[0,1,2]  c263      1
    z1[0,1,3]  c141      1
    z1[0,1,3]  c221      -1
    z2[0,1,3]  c161      6
    z2[0,1,3]  c221      -1
    z3[0,1,3]  c160      1
    z3[0,1,3]  c162      1
    z3[0,1,3]  c181      2
    z3[0,1,3]  c221      -1
    z3[0,1,3]  c264      1
    z3[0,1,3]  c265      1
    z3[0,1,3]  c266      1
    z3[0,1,3]  c267      1
    z3[0,1,3]  c268      1
    z4[0,1,3]  c160      1
    z4[0,1,3]  c162      1
    z4[0,1,3]  c201      2
    z4[0,1,3]  c221      -1
    z4[0,1,3]  c264      1
    z4[0,1,3]  c265      1
    z4[0,1,3]  c266      1
    z4[0,1,3]  c267      1
    z4[0,1,3]  c268      1
    z1[1,0,0]  c127      1
    z1[1,0,0]  c207      -1
    z2[1,0,0]  c147      6
    z2[1,0,0]  c207      -1
    z3[1,0,0]  c167      2
    z3[1,0,0]  c207      -1
    z3[1,0,0]  c249      1
    z3[1,0,0]  c250      1
    z3[1,0,0]  c251      1
    z3[1,0,0]  c252      1
    z3[1,0,0]  c253      1
    z4[1,0,0]  c187      2
    z4[1,0,0]  c207      -1
    z4[1,0,0]  c249      1
    z4[1,0,0]  c250      1
    z4[1,0,0]  c251      1
    z4[1,0,0]  c252      1
    z4[1,0,0]  c253      1
    z1[1,0,1]  c132      1
    z1[1,0,1]  c212      -1
    z2[1,0,1]  c152      6
    z2[1,0,1]  c212      -1
    z3[1,0,1]  c172      2
    z3[1,0,1]  c212      -1
    z3[1,0,1]  c254      1
    z3[1,0,1]  c255      1
    z3[1,0,1]  c256      1
    z3[1,0,1]  c257      1
    z3[1,0,1]  c258      1
    z4[1,0,1]  c192      2
    z4[1,0,1]  c212      -1
    z4[1,0,1]  c254      1
    z4[1,0,1]  c255      1
    z4[1,0,1]  c256      1
    z4[1,0,1]  c257      1
    z4[1,0,1]  c258      1
    z1[1,0,2]  c137      1
    z1[1,0,2]  c217      -1
    z2[1,0,2]  c157      6
    z2[1,0,2]  c217      -1
    z3[1,0,2]  c177      2
    z3[1,0,2]  c217      -1
    z3[1,0,2]  c259      1
    z3[1,0,2]  c260      1
    z3[1,0,2]  c261      1
    z3[1,0,2]  c262      1
    z3[1,0,2]  c263      1
    z4[1,0,2]  c197      2
    z4[1,0,2]  c217      -1
    z4[1,0,2]  c259      1
    z4[1,0,2]  c260      1
    z4[1,0,2]  c261      1
    z4[1,0,2]  c262      1
    z4[1,0,2]  c263      1
    z1[1,0,3]  c142      1
    z1[1,0,3]  c222      -1
    z2[1,0,3]  c162      6
    z2[1,0,3]  c222      -1
    z3[1,0,3]  c182      2
    z3[1,0,3]  c222      -1
    z3[1,0,3]  c264      1
    z3[1,0,3]  c265      1
    z3[1,0,3]  c266      1
    z3[1,0,3]  c267      1
    z3[1,0,3]  c268      1
    z4[1,0,3]  c202      2
    z4[1,0,3]  c222      -1
    z4[1,0,3]  c264      1
    z4[1,0,3]  c265      1
    z4[1,0,3]  c266      1
    z4[1,0,3]  c267      1
    z4[1,0,3]  c268      1
    z1[2,0,0]  c128      1
    z1[2,0,0]  c208      -1
    z2[2,0,0]  c148      6
    z2[2,0,0]  c208      -1
    z3[2,0,0]  c145      1
    z3[2,0,0]  c147      1
    z3[2,0,0]  c168      1
    z3[2,0,0]  c208      -1
    z3[2,0,0]  c249      1
    z3[2,0,0]  c250      1
    z3[2,0,0]  c251      1
    z3[2,0,0]  c252      1
    z3[2,0,0]  c253      1
    z4[2,0,0]  c145      1
    z4[2,0,0]  c147      1
    z4[2,0,0]  c188      1
    z4[2,0,0]  c208      -1
    z4[2,0,0]  c249      1
    z4[2,0,0]  c250      1
    z4[2,0,0]  c251      1
    z4[2,0,0]  c252      1
    z4[2,0,0]  c253      1
    z1[2,0,1]  c133      1
    z1[2,0,1]  c213      -1
    z2[2,0,1]  c153      6
    z2[2,0,1]  c213      -1
    z3[2,0,1]  c150      1
    z3[2,0,1]  c152      1
    z3[2,0,1]  c173      1
    z3[2,0,1]  c213      -1
    z3[2,0,1]  c254      1
    z3[2,0,1]  c255      1
    z3[2,0,1]  c256      1
    z3[2,0,1]  c257      1
    z3[2,0,1]  c258      1
    z4[2,0,1]  c150      1
    z4[2,0,1]  c152      1
    z4[2,0,1]  c193      1
    z4[2,0,1]  c213      -1
    z4[2,0,1]  c254      1
    z4[2,0,1]  c255      1
    z4[2,0,1]  c256      1
    z4[2,0,1]  c257      1
    z4[2,0,1]  c258      1
    z1[2,0,2]  c138      1
    z1[2,0,2]  c218      -1
    z2[2,0,2]  c158      6
    z2[2,0,2]  c218      -1
    z3[2,0,2]  c155      1
    z3[2,0,2]  c157      1
    z3[2,0,2]  c178      1
    z3[2,0,2]  c218      -1
    z3[2,0,2]  c259      1
    z3[2,0,2]  c260      1
    z3[2,0,2]  c261      1
    z3[2,0,2]  c262      1
    z3[2,0,2]  c263      1
    z4[2,0,2]  c155      1
    z4[2,0,2]  c157      1
    z4[2,0,2]  c198      1
    z4[2,0,2]  c218      -1
    z4[2,0,2]  c259      1
    z4[2,0,2]  c260      1
    z4[2,0,2]  c261      1
    z4[2,0,2]  c262      1
    z4[2,0,2]  c263      1
    z1[2,0,3]  c143      1
    z1[2,0,3]  c223      -1
    z2[2,0,3]  c163      6
    z2[2,0,3]  c223      -1
    z3[2,0,3]  c160      1
    z3[2,0,3]  c162      1
    z3[2,0,3]  c183      1
    z3[2,0,3]  c223      -1
    z3[2,0,3]  c264      1
    z3[2,0,3]  c265      1
    z3[2,0,3]  c266      1
    z3[2,0,3]  c267      1
    z3[2,0,3]  c268      1
    z4[2,0,3]  c160      1
    z4[2,0,3]  c162      1
    z4[2,0,3]  c203      1
    z4[2,0,3]  c223      -1
    z4[2,0,3]  c264      1
    z4[2,0,3]  c265      1
    z4[2,0,3]  c266      1
    z4[2,0,3]  c267      1
    z4[2,0,3]  c268      1
    z1[3,0,0]  c129      1
    z1[3,0,0]  c209      -1
    z2[3,0,0]  c149      6
    z2[3,0,0]  c209      -1
    z3[3,0,0]  c145      1
    z3[3,0,0]  c147      1
    z3[3,0,0]  c169      2
    z3[3,0,0]  c209      -1
    z3[3,0,0]  c249      1
    z3[3,0,0]  c250      1
    z3[3,0,0]  c251      1
    z3[3,0,0]  c252      1
    z3[3,0,0]  c253      1
    z4[3,0,0]  c145      1
    z4[3,0,0]  c147      1
    z4[3,0,0]  c189      2
    z4[3,0,0]  c209      -1
    z4[3,0,0]  c249      1
    z4[3,0,0]  c250      1
    z4[3,0,0]  c251      1
    z4[3,0,0]  c252      1
    z4[3,0,0]  c253      1
    z1[3,0,1]  c134      1
    z1[3,0,1]  c214      -1
    z2[3,0,1]  c154      6
    z2[3,0,1]  c214      -1
    z3[3,0,1]  c150      1
    z3[3,0,1]  c152      1
    z3[3,0,1]  c174      2
    z3[3,0,1]  c214      -1
    z3[3,0,1]  c254      1
    z3[3,0,1]  c255      1
    z3[3,0,1]  c256      1
    z3[3,0,1]  c257      1
    z3[3,0,1]  c258      1
    z4[3,0,1]  c150      1
    z4[3,0,1]  c152      1
    z4[3,0,1]  c194      2
    z4[3,0,1]  c214      -1
    z4[3,0,1]  c254      1
    z4[3,0,1]  c255      1
    z4[3,0,1]  c256      1
    z4[3,0,1]  c257      1
    z4[3,0,1]  c258      1
    z1[3,0,2]  c139      1
    z1[3,0,2]  c219      -1
    z2[3,0,2]  c159      6
    z2[3,0,2]  c219      -1
    z3[3,0,2]  c155      1
    z3[3,0,2]  c157      1
    z3[3,0,2]  c179      2
    z3[3,0,2]  c219      -1
    z3[3,0,2]  c259      1
    z3[3,0,2]  c260      1
    z3[3,0,2]  c261      1
    z3[3,0,2]  c262      1
    z3[3,0,2]  c263      1
    z4[3,0,2]  c155      1
    z4[3,0,2]  c157      1
    z4[3,0,2]  c199      2
    z4[3,0,2]  c219      -1
    z4[3,0,2]  c259      1
    z4[3,0,2]  c260      1
    z4[3,0,2]  c261      1
    z4[3,0,2]  c262      1
    z4[3,0,2]  c263      1
    z1[3,0,3]  c144      1
    z1[3,0,3]  c224      -1
    z2[3,0,3]  c164      6
    z2[3,0,3]  c224      -1
    z3[3,0,3]  c160      1
    z3[3,0,3]  c162      1
    z3[3,0,3]  c184      2
    z3[3,0,3]  c224      -1
    z3[3,0,3]  c264      1
    z3[3,0,3]  c265      1
    z3[3,0,3]  c266      1
    z3[3,0,3]  c267      1
    z3[3,0,3]  c268      1
    z4[3,0,3]  c160      1
    z4[3,0,3]  c162      1
    z4[3,0,3]  c204      2
    z4[3,0,3]  c224      -1
    z4[3,0,3]  c264      1
    z4[3,0,3]  c265      1
    z4[3,0,3]  c266      1
    z4[3,0,3]  c267      1
    z4[3,0,3]  c268      1
    u[0,0,0]  c29       -1
    u[0,0,0]  c49       1
    u[0,0,1]  c30       -1
    u[0,0,1]  c53       1
    u[0,0,2]  c31       -1
    u[0,0,2]  c57       1
    u[0,0,3]  c32       -1
    u[0,0,3]  c61       1
    u[0,1,0]  c13       -1
    u[0,1,0]  c33       -1
    u[0,1,0]  c49       1
    u[0,1,1]  c17       -1
    u[0,1,1]  c34       -1
    u[0,1,1]  c53       1
    u[0,1,2]  c21       -1
    u[0,1,2]  c35       -1
    u[0,1,2]  c57       1
    u[0,1,3]  c25       -1
    u[0,1,3]  c36       -1
    u[0,1,3]  c61       1
    u[1,0,0]  c37       -1
    u[1,0,0]  c50       1
    u[1,0,1]  c38       -1
    u[1,0,1]  c54       1
    u[1,0,2]  c39       -1
    u[1,0,2]  c58       1
    u[1,0,3]  c40       -1
    u[1,0,3]  c62       1
    u[2,0,0]  c41       -1
    u[2,0,0]  c51       1
    u[2,0,1]  c42       -1
    u[2,0,1]  c55       1
    u[2,0,2]  c43       -1
    u[2,0,2]  c59       1
    u[2,0,3]  c44       -1
    u[2,0,3]  c63       1
    u[3,0,0]  c45       -1
    u[3,0,0]  c52       1
    u[3,0,1]  c46       -1
    u[3,0,1]  c56       1
    u[3,0,2]  c47       -1
    u[3,0,2]  c60       1
    u[3,0,3]  c48       -1
    u[3,0,3]  c64       1
    MARKER    'MARKER'                 'INTEND'
    h[0,0]    c4        1
    h[0,0]    c85       -1
    h[0,0]    c86       -1
    h[0,0]    c87       -1
    h[0,0]    c88       -1
    h[0,1]    c4        -1
    h[0,1]    c5        1
    h[0,1]    c89       -1
    h[0,1]    c90       -1
    h[0,1]    c91       -1
    h[0,1]    c92       -1
    h[0,2]    c5        -1
    h[0,2]    c6        1
    h[0,2]    c93       -1
    h[0,2]    c94       -1
    h[0,2]    c95       -1
    h[0,2]    c96       -1
    h[0,3]    c6        -1
    h[0,3]    c97       -1
    h[0,3]    c98       -1
    h[0,3]    c99       -1
    h[0,3]    c100      -1
    h[1,0]    c7        1
    h[1,0]    c101      -1
    h[1,1]    c7        -1
    h[1,1]    c8        1
    h[1,1]    c102      -1
    h[1,2]    c8        -1
    h[1,2]    c9        1
    h[1,2]    c103      -1
    h[1,3]    c9        -1
    h[1,3]    c104      -1
    h[2,0]    c10       1
    h[2,0]    c105      -1
    h[2,0]    c106      -1
    h[2,0]    c107      -1
    h[2,0]    c108      -1
    h[2,0]    c109      -1
    h[2,1]    c10       -1
    h[2,1]    c11       1
    h[2,1]    c110      -1
    h[2,1]    c111      -1
    h[2,1]    c112      -1
    h[2,1]    c113      -1
    h[2,1]    c114      -1
    h[2,2]    c11       -1
    h[2,2]    c12       1
    h[2,2]    c115      -1
    h[2,2]    c116      -1
    h[2,2]    c117      -1
    h[2,2]    c118      -1
    h[2,2]    c119      -1
    h[2,3]    c12       -1
    h[2,3]    c120      -1
    h[2,3]    c121      -1
    h[2,3]    c122      -1
    h[2,3]    c123      -1
    h[2,3]    c124      -1
    e[0]      OBJ       1
    e[0]      c249      -1
    e[0]      c250      -1
    e[0]      c251      -1
    e[0]      c252      -1
    e[0]      c253      -1
    e[1]      OBJ       1
    e[1]      c254      -1
    e[1]      c255      -1
    e[1]      c256      -1
    e[1]      c257      -1
    e[1]      c258      -1
    e[2]      OBJ       1
    e[2]      c259      -1
    e[2]      c260      -1
    e[2]      c261      -1
    e[2]      c262      -1
    e[2]      c263      -1
    e[3]      OBJ       1
    e[3]      c264      -1
    e[3]      c265      -1
    e[3]      c266      -1
    e[3]      c267      -1
    e[3]      c268      -1
RHS
    RHS1      c0        1
    RHS1      c1        1
    RHS1      c2        1
    RHS1      c3        1
    RHS1      c49       1
    RHS1      c50       1
    RHS1      c51       1
    RHS1      c52       1
    RHS1      c53       1
    RHS1      c54       1
    RHS1      c55       1
    RHS1      c56       1
    RHS1      c57       1
    RHS1      c58       1
    RHS1      c59       1
    RHS1      c60       1
    RHS1      c61       1
    RHS1      c62       1
    RHS1      c63       1
    RHS1      c64       1
    RHS1      c65       1002
    RHS1      c66       1002
    RHS1      c67       1002
    RHS1      c68       1002
    RHS1      c69       1003
    RHS1      c70       1003
    RHS1      c71       1003
    RHS1      c72       1003
    RHS1      c73       6
    RHS1      c74       6
    RHS1      c75       6
    RHS1      c76       6
    RHS1      c77       1003
    RHS1      c78       1003
    RHS1      c79       1003
    RHS1      c80       1003
    RHS1      c81       1003
    RHS1      c82       1003
    RHS1      c83       1003
    RHS1      c84       1003
    RHS1      c85       2
    RHS1      c86       3
    RHS1      c87       2
    RHS1      c88       3
    RHS1      c89       2
    RHS1      c90       3
    RHS1      c91       2
    RHS1      c92       3
    RHS1      c93       2
    RHS1      c94       3
    RHS1      c95       2
    RHS1      c96       3
    RHS1      c97       2
    RHS1      c98       3
    RHS1      c99       2
    RHS1      c100      3
    RHS1      c101      2
    RHS1      c102      2
    RHS1      c103      2
    RHS1      c104      2
    RHS1      c105      2
    RHS1      c106      3
    RHS1      c107      2
    RHS1      c108      3
    RHS1      c109      3
    RHS1      c110      2
    RHS1      c111      3
    RHS1      c112      2
    RHS1      c113      3
    RHS1      c114      3
    RHS1      c115      2
    RHS1      c116      3
    RHS1      c117      2
    RHS1      c118      3
    RHS1      c119      3
    RHS1      c120      2
    RHS1      c121      3
    RHS1      c122      2
    RHS1      c123      3
    RHS1      c124      3
    RHS1      c145      4
    RHS1      c146      4
    RHS1      c147      1
    RHS1      c148      5
    RHS1      c149      4
    RHS1      c150      4
    RHS1      c151      4
    RHS1      c152      1
    RHS1      c153      5
    RHS1      c154      4
    RHS1      c155      4
    RHS1      c156      4
    RHS1      c157      1
    RHS1      c158      5
    RHS1      c159      4
    RHS1      c160      4
    RHS1      c161      4
    RHS1      c162      1
    RHS1      c163      5
    RHS1      c164      4
    RHS1      c225      1
    RHS1      c226      1
    RHS1      c227      1
    RHS1      c228      1
    RHS1      c249      1
    RHS1      c250      1
    RHS1      c251      1
    RHS1      c252      1
    RHS1      c253      1
    RHS1      c254      1
    RHS1      c255      1
    RHS1      c256      1
    RHS1      c257      1
    RHS1      c258      1
    RHS1      c259      1
    RHS1      c260      1
    RHS1      c261      1
    RHS1      c262      1
    RHS1      c263      1
    RHS1      c264      1
    RHS1      c265      1
    RHS1      c266      1
    RHS1      c267      1
    RHS1      c268      1
BOUNDS
 BV BND1      x[0,0,0]
 BV BND1      x[0,0,1]
 BV BND1      x[0,0,2]
 BV BND1      x[0,0,3]
 BV BND1      x[0,1,0]
 BV BND1      x[0,1,1]
 BV BND1      x[0,1,2]
 BV BND1      x[0,1,3]
 BV BND1      x[1,0,0]
 BV BND1      x[1,0,1]
 BV BND1      x[1,0,2]
 BV BND1      x[1,0,3]
 BV BND1      x[2,0,0]
 BV BND1      x[2,0,1]
 BV BND1      x[2,0,2]
 BV BND1      x[2,0,3]
 BV BND1      x[3,0,0]
 BV BND1      x[3,0,1]
 BV BND1      x[3,0,2]
 BV BND1      x[3,0,3]
 BV BND1      y[0,0,0]
 BV BND1      y[0,0,1]
 BV BND1      y[0,0,2]
 BV BND1      y[0,0,3]
 BV BND1      y[0,1,0]
 BV BND1      y[0,1,1]
 BV BND1      y[0,1,2]
 BV BND1      y[0,1,3]
 BV BND1      y[1,0,0]
 BV BND1      y[1,0,1]
 BV BND1      y[1,0,2]
 BV BND1      y[1,0,3]
 BV BND1      y[2,0,0]
 BV BND1      y[2,0,1]
 BV BND1      y[2,0,2]
 BV BND1      y[2,0,3]
 BV BND1      y[3,0,0]
 BV BND1      y[3,0,1]
 BV BND1      y[3,0,2]
 BV BND1      y[3,0,3]
 BV BND1      z1[0,0,0]
 BV BND1      z2[0,0,0]
 BV BND1      z3[0,0,0]
 BV BND1      z4[0,0,0]
 BV BND1      z1[0,0,1]
 BV BND1      z2[0,0,1]
 BV BND1      z3[0,0,1]
 BV BND1      z4[0,0,1]
 BV BND1      z1[0,0,2]
 BV BND1      z2[0,0,2]
 BV BND1      z3[0,0,2]
 BV BND1      z4[0,0,2]
 BV BND1      z1[0,0,3]
 BV BND1      z2[0,0,3]
 BV BND1      z3[0,0,3]
 BV BND1      z4[0,0,3]
 BV BND1      z1[0,1,0]
 BV BND1      z2[0,1,0]
 BV BND1      z3[0,1,0]
 BV BND1      z4[0,1,0]
 BV BND1      z1[0,1,1]
 BV BND1      z2[0,1,1]
 BV BND1      z3[0,1,1]
 BV BND1      z4[0,1,1]
 BV BND1      z1[0,1,2]
 BV BND1      z2[0,1,2]
 BV BND1      z3[0,1,2]
 BV BND1      z4[0,1,2]
 BV BND1      z1[0,1,3]
 BV BND1      z2[0,1,3]
 BV BND1      z3[0,1,3]
 BV BND1      z4[0,1,3]
 BV BND1      z1[1,0,0]
 BV BND1      z2[1,0,0]
 BV BND1      z3[1,0,0]
 BV BND1      z4[1,0,0]
 BV BND1      z1[1,0,1]
 BV BND1      z2[1,0,1]
 BV BND1      z3[1,0,1]
 BV BND1      z4[1,0,1]
 BV BND1      z1[1,0,2]
 BV BND1      z2[1,0,2]
 BV BND1      z3[1,0,2]
 BV BND1      z4[1,0,2]
 BV BND1      z1[1,0,3]
 BV BND1      z2[1,0,3]
 BV BND1      z3[1,0,3]
 BV BND1      z4[1,0,3]
 BV BND1      z1[2,0,0]
 BV BND1      z2[2,0,0]
 BV BND1      z3[2,0,0]
 BV BND1      z4[2,0,0]
 BV BND1      z1[2,0,1]
 BV BND1      z2[2,0,1]
 BV BND1      z3[2,0,1]
 BV BND1      z4[2,0,1]
 BV BND1      z1[2,0,2]
 BV BND1      z2[2,0,2]
 BV BND1      z3[2,0,2]
 BV BND1      z4[2,0,2]
 BV BND1      z1[2,0,3]
 BV BND1      z2[2,0,3]
 BV BND1      z3[2,0,3]
 BV BND1      z4[2,0,3]
 BV BND1      z1[3,0,0]
 BV BND1      z2[3,0,0]
 BV BND1      z3[3,0,0]
 BV BND1      z4[3,0,0]
 BV BND1      z1[3,0,1]
 BV BND1      z2[3,0,1]
 BV BND1      z3[3,0,1]
 BV BND1      z4[3,0,1]
 BV BND1      z1[3,0,2]
 BV BND1      z2[3,0,2]
 BV BND1      z3[3,0,2]
 BV BND1      z4[3,0,2]
 BV BND1      z1[3,0,3]
 BV BND1      z2[3,0,3]
 BV BND1      z3[3,0,3]
 BV BND1      z4[3,0,3]
 BV BND1      u[0,0,0]
 BV BND1      u[0,0,1]
 BV BND1      u[0,0,2]
 BV BND1      u[0,0,3]
 BV BND1      u[0,1,0]
 BV BND1      u[0,1,1]
 BV BND1      u[0,1,2]
 BV BND1      u[0,1,3]
 BV BND1      u[1,0,0]
 BV BND1      u[1,0,1]
 BV BND1      u[1,0,2]
 BV BND1      u[1,0,3]
 BV BND1      u[2,0,0]
 BV BND1      u[2,0,1]
 BV BND1      u[2,0,2]
 BV BND1      u[2,0,3]
 BV BND1      u[3,0,0]
 BV BND1      u[3,0,1]
 BV BND1      u[3,0,2]
 BV BND1      u[3,0,3]
 FX BND1      h[0,0]    4
 UP BND1      h[0,1]    4
 UP BND1      h[0,2]    4
 UP BND1      h[0,3]    4
 FX BND1      h[1,0]    4
 UP BND1      h[1,1]    4
 UP BND1      h[1,2]    4
 UP BND1      h[1,3]    4
 FX BND1      h[2,0]    4
 UP BND1      h[2,1]    4
 UP BND1      h[2,2]    4
 UP BND1      h[2,3]    4
 UP BND1      e[0]      24
 UP BND1      e[1]      24
 UP BND1      e[2]      24
 UP BND1      e[3]      24
ENDATA
